SAT
-61 44 28 -42 97 69 43 -14 -3 -21 77 31 -1 23 46 67 98 -41 83 -74 -34 -16 22 -8 100 -75 13 37 -84 -62 -27 45 -63 71 68 -30 92 -38 -15 9 -53 -39 -99 25 72 26 -47 -80 49 -36 -78 17 65 52 54 73 82 -59 -89 64 -48 76 5 66 -86 -81 -40 33 12 29 -95 -70 -18 -24 -79 -93 7 -32 55 -87 -57 96 -58 -51 50 -10 -56 -85 -88 11 91 2 -20 6 19 -94 -90 60 -35 4 0
